************************************************************************
file with basedata            : mm4_.bas
initial value random generator: 1027102361
************************************************************************
projects                      :  1
jobs (incl. supersource/sink ):  12
horizon                       :  78
RESOURCES
  - renewable                 :  2   R
  - nonrenewable              :  2   N
  - doubly constrained        :  0   D
************************************************************************
PROJECT INFORMATION:
pronr.  #jobs rel.date duedate tardcost  MPM-Time
    1     10      0        9        4        9
************************************************************************
PRECEDENCE RELATIONS:
jobnr.    #modes  #successors   successors
   0        1          3           1   2   3
   1        3          3           4   5   6
   2        3          1           8
   3        3          2           4   8
   4        3          1          10
   5        3          1           7
   6        3          3           7   8   9
   7        3          1          10
   8        3          1          11
   9        3          1          11
  10        3          1          11
  11        1          0        
************************************************************************
REQUESTS/DURATIONS:
jobnr. mode duration  R 1  R 2  R 3  R 4  E(W 1)  E(W 2)
------------------------------------------------------------------------
  0      1     0       0    0    0    0     0       0
  1      1     3       9    0    9    0    27      27
  2      1     1       7    0    0    9     7       9
  3      1     2       4    0    7    0     8      14
  4      1     1       0    9    9    0     9       9
  5      1     1       1    0    4    0     2       4
  6      1     1       9    0    0    8     9       8
  7      1     1       3    0    0    6     3       6
  8      1     1       9    0   10    0     9      10
  9      1     3       6    0    0    2    18       6
 10      1     4       9    0    7    0    36      28
 11      1     0       0    0    0    0     0       0
************************************************************************
RESOURCEAVAILABILITIES:
  R 1  R 2
   14   117
************************************************************************
RESOURCE LIMITS:
jobnr.  l(R 1)  u(R 1)  l(R 2)  u(R 2)
------------------------------------------------------------------------
  0        0       0       0       0
  1        5       9       5       9
  2        4       7       5       9
  3        2       4       4       7
  4        5       9       5       9
  5        1       2       2       4
  6        5       9       4       8
  7        2       3       3       6
  8        5       9       5      10
  9        3       6       1       2
 10        5       9       4       7
 11        0       0       0       0
************************************************************************
SCENARIOS:
------------------------------------------------------------------------
RESOURCE k = 1
s = 1: (0, 32, 4, 6, 9, 2, 12, 3, 9, 13, 25, 0)
s = 2: (0, 22, 7, 5, 9, 2, 6, 3, 7, 27, 51, 0)
s = 3: (0, 21, 6, 8, 12, 3, 11, 3, 7, 20, 36, 0)
s = 4: (0, 26, 8, 13, 6, 3, 10, 3, 12, 11, 33, 0)
s = 5: (0, 40, 9, 17, 10, 2, 7, 3, 10, 24, 74, 0)
s = 6: (0, 25, 11, 5, 9, 4, 14, 3, 10, 20, 55, 0)
s = 7: (0, 23, 7, 9, 8, 2, 12, 3, 11, 22, 42, 0)
s = 8: (0, 22, 11, 7, 11, 2, 9, 3, 12, 22, 50, 0)
s = 9: (0, 34, 5, 12, 16, 3, 7, 3, 12, 14, 34, 0)
s = 10: (0, 34, 6, 9, 7, 2, 7, 4, 11, 11, 36, 0)
s = 11: (0, 36, 7, 11, 9, 4, 6, 4, 7, 22, 35, 0)
s = 12: (0, 32, 8, 13, 10, 3, 13, 3, 6, 18, 51, 0)
s = 13: (0, 24, 9, 7, 10, 3, 10, 3, 12, 14, 47, 0)
s = 14: (0, 33, 6, 8, 8, 3, 8, 3, 7, 26, 24, 0)
s = 15: (0, 39, 8, 6, 9, 3, 10, 4, 7, 15, 52, 0)
s = 16: (0, 24, 5, 13, 6, 3, 9, 4, 14, 14, 53, 0)
s = 17: (0, 30, 6, 11, 6, 3, 10, 4, 11, 12, 31, 0)
s = 18: (0, 35, 6, 6, 9, 3, 6, 5, 9, 21, 46, 0)
s = 19: (0, 28, 8, 9, 10, 2, 10, 3, 7, 20, 36, 0)
s = 20: (0, 40, 5, 6, 11, 3, 6, 5, 9, 12, 34, 0)
s = 21: (0, 15, 8, 8, 11, 2, 8, 2, 8, 18, 46, 0)
s = 22: (0, 20, 11, 8, 8, 3, 13, 4, 10, 17, 48, 0)
s = 23: (0, 38, 8, 9, 6, 3, 7, 4, 8, 22, 28, 0)
s = 24: (0, 36, 9, 6, 10, 2, 10, 4, 13, 19, 50, 0)
s = 25: (0, 21, 10, 7, 16, 3, 11, 3, 11, 23, 52, 0)
s = 26: (0, 27, 6, 7, 8, 2, 14, 4, 7, 19, 54, 0)
s = 27: (0, 34, 5, 5, 9, 2, 6, 3, 13, 19, 39, 0)
s = 28: (0, 26, 5, 6, 7, 3, 11, 3, 8, 27, 29, 0)
s = 29: (0, 38, 9, 7, 13, 3, 8, 3, 8, 17, 55, 0)
s = 30: (0, 31, 7, 8, 11, 3, 16, 3, 7, 15, 37, 0)
s = 31: (0, 16, 6, 9, 8, 3, 6, 2, 11, 16, 24, 0)
s = 32: (0, 17, 6, 12, 9, 3, 10, 2, 8, 15, 31, 0)
s = 33: (0, 24, 5, 10, 7, 2, 7, 3, 15, 23, 48, 0)
s = 34: (0, 26, 13, 7, 12, 2, 11, 3, 15, 21, 47, 0)
s = 35: (0, 28, 11, 5, 9, 2, 7, 3, 7, 19, 39, 0)
s = 36: (0, 28, 7, 7, 7, 3, 11, 3, 8, 25, 49, 0)
s = 37: (0, 31, 8, 11, 14, 2, 9, 4, 8, 12, 30, 0)
s = 38: (0, 19, 6, 14, 6, 2, 9, 3, 16, 17, 34, 0)
s = 39: (0, 42, 10, 7, 11, 3, 13, 3, 7, 18, 28, 0)
s = 40: (0, 43, 7, 7, 10, 2, 9, 3, 11, 25, 37, 0)
s = 41: (0, 45, 11, 6, 9, 2, 8, 3, 13, 15, 38, 0)
s = 42: (0, 31, 8, 9, 8, 3, 6, 4, 15, 14, 29, 0)
s = 43: (0, 30, 8, 6, 11, 3, 12, 4, 11, 14, 26, 0)
s = 44: (0, 16, 8, 13, 9, 2, 10, 4, 10, 26, 26, 0)
s = 45: (0, 26, 4, 7, 6, 2, 10, 4, 6, 30, 25, 0)
s = 46: (0, 23, 10, 11, 8, 2, 10, 3, 10, 16, 34, 0)
s = 47: (0, 41, 10, 6, 10, 3, 11, 3, 8, 22, 46, 0)
s = 48: (0, 39, 10, 10, 6, 3, 10, 3, 8, 19, 29, 0)
s = 49: (0, 25, 8, 10, 9, 2, 11, 2, 9, 16, 33, 0)
s = 50: (0, 17, 9, 8, 15, 4, 7, 3, 7, 19, 21, 0)
s = 51: (0, 21, 11, 5, 14, 3, 8, 3, 8, 20, 45, 0)
s = 52: (0, 35, 11, 11, 10, 2, 10, 3, 7, 15, 27, 0)
s = 53: (0, 20, 9, 9, 8, 2, 7, 4, 15, 26, 44, 0)
s = 54: (0, 22, 8, 13, 10, 4, 12, 3, 9, 23, 34, 0)
s = 55: (0, 29, 9, 11, 9, 2, 8, 4, 6, 16, 50, 0)
s = 56: (0, 26, 7, 13, 8, 2, 10, 5, 13, 16, 38, 0)
s = 57: (0, 30, 6, 6, 10, 3, 7, 5, 9, 13, 51, 0)
s = 58: (0, 32, 6, 9, 6, 3, 16, 5, 7, 14, 23, 0)
s = 59: (0, 44, 10, 11, 13, 2, 9, 4, 6, 12, 44, 0)
s = 60: (0, 20, 6, 9, 12, 3, 9, 4, 8, 22, 29, 0)
s = 61: (0, 22, 9, 12, 8, 2, 7, 3, 10, 15, 53, 0)
s = 62: (0, 30, 7, 5, 6, 2, 9, 4, 11, 29, 35, 0)
s = 63: (0, 19, 8, 8, 7, 3, 12, 4, 8, 20, 27, 0)
s = 64: (0, 18, 6, 7, 13, 3, 11, 2, 9, 13, 20, 0)
s = 65: (0, 38, 9, 5, 10, 3, 13, 5, 8, 18, 27, 0)
s = 66: (0, 37, 5, 12, 9, 3, 8, 3, 7, 23, 29, 0)
s = 67: (0, 18, 7, 10, 7, 2, 6, 4, 14, 11, 39, 0)
s = 68: (0, 30, 7, 7, 9, 2, 7, 4, 14, 23, 36, 0)
s = 69: (0, 22, 8, 8, 9, 2, 6, 4, 6, 27, 44, 0)
s = 70: (0, 30, 11, 5, 10, 2, 12, 4, 7, 19, 31, 0)
s = 71: (0, 25, 7, 8, 10, 2, 11, 3, 8, 23, 38, 0)
s = 72: (0, 35, 6, 5, 14, 3, 12, 3, 9, 21, 28, 0)
s = 73: (0, 22, 10, 7, 7, 3, 14, 5, 9, 20, 26, 0)
s = 74: (0, 37, 5, 6, 11, 2, 15, 4, 10, 16, 56, 0)
s = 75: (0, 29, 8, 6, 13, 2, 9, 4, 7, 18, 33, 0)
s = 76: (0, 25, 10, 10, 8, 3, 8, 3, 7, 13, 44, 0)
s = 77: (0, 32, 7, 9, 7, 3, 9, 3, 9, 15, 24, 0)
s = 78: (0, 18, 7, 8, 13, 2, 5, 3, 10, 20, 34, 0)
s = 79: (0, 20, 9, 6, 12, 3, 7, 3, 11, 14, 35, 0)
s = 80: (0, 20, 5, 11, 12, 3, 8, 4, 9, 20, 31, 0)
s = 81: (0, 18, 10, 13, 7, 3, 9, 3, 7, 18, 49, 0)
s = 82: (0, 41, 6, 6, 11, 3, 9, 3, 6, 28, 44, 0)
s = 83: (0, 29, 5, 6, 12, 2, 8, 2, 7, 12, 46, 0)
s = 84: (0, 33, 6, 9, 8, 2, 6, 3, 10, 17, 33, 0)
s = 85: (0, 32, 7, 11, 7, 3, 7, 3, 7, 25, 53, 0)
s = 86: (0, 47, 5, 7, 12, 3, 8, 4, 13, 17, 27, 0)
s = 87: (0, 31, 6, 5, 7, 2, 7, 3, 10, 14, 37, 0)
s = 88: (0, 28, 9, 8, 11, 3, 7, 4, 10, 16, 21, 0)
s = 89: (0, 22, 9, 6, 10, 2, 10, 3, 11, 21, 36, 0)
s = 90: (0, 22, 5, 12, 9, 2, 11, 3, 7, 14, 52, 0)
s = 91: (0, 20, 8, 9, 12, 2, 13, 3, 10, 10, 45, 0)
s = 92: (0, 20, 6, 12, 8, 3, 6, 2, 15, 27, 58, 0)
s = 93: (0, 21, 4, 12, 8, 2, 13, 3, 7, 19, 43, 0)
s = 94: (0, 21, 7, 11, 12, 2, 10, 3, 15, 16, 41, 0)
s = 95: (0, 22, 7, 8, 7, 2, 6, 4, 7, 26, 19, 0)
s = 96: (0, 31, 5, 10, 6, 3, 6, 2, 8, 19, 44, 0)
s = 97: (0, 18, 7, 8, 9, 2, 9, 4, 7, 15, 48, 0)
s = 98: (0, 16, 9, 9, 6, 3, 7, 5, 7, 27, 31, 0)
s = 99: (0, 26, 8, 12, 14, 2, 9, 4, 7, 22, 24, 0)
s = 100: (0, 25, 9, 5, 10, 2, 7, 3, 14, 22, 59, 0)
s = 101: (0, 36, 7, 8, 12, 2, 10, 5, 15, 13, 25, 0)
s = 102: (0, 30, 10, 6, 9, 2, 8, 3, 9, 21, 25, 0)
s = 103: (0, 28, 6, 9, 7, 3, 12, 3, 8, 26, 40, 0)
s = 104: (0, 16, 5, 10, 10, 3, 6, 3, 6, 13, 51, 0)
s = 105: (0, 19, 6, 8, 10, 2, 8, 4, 6, 26, 30, 0)
s = 106: (0, 27, 8, 7, 8, 3, 7, 5, 8, 24, 28, 0)
s = 107: (0, 21, 6, 11, 12, 2, 11, 3, 10, 16, 28, 0)
s = 108: (0, 48, 7, 12, 14, 2, 14, 4, 9, 18, 44, 0)
s = 109: (0, 29, 6, 10, 11, 2, 11, 3, 8, 15, 44, 0)
s = 110: (0, 18, 4, 7, 7, 3, 11, 4, 10, 28, 21, 0)
s = 111: (0, 31, 6, 8, 6, 2, 6, 2, 7, 22, 25, 0)
s = 112: (0, 16, 6, 12, 11, 3, 12, 4, 6, 16, 41, 0)
s = 113: (0, 37, 12, 12, 8, 3, 7, 4, 10, 13, 50, 0)
s = 114: (0, 20, 10, 8, 11, 3, 7, 4, 7, 33, 27, 0)
s = 115: (0, 23, 6, 9, 12, 2, 10, 5, 7, 16, 21, 0)
s = 116: (0, 45, 8, 7, 8, 2, 11, 4, 10, 22, 37, 0)
s = 117: (0, 32, 7, 10, 9, 2, 14, 3, 8, 32, 30, 0)
s = 118: (0, 31, 5, 8, 16, 2, 9, 4, 7, 33, 36, 0)
s = 119: (0, 37, 8, 7, 6, 3, 9, 4, 7, 14, 35, 0)
s = 120: (0, 30, 8, 7, 11, 3, 10, 4, 14, 17, 54, 0)
s = 121: (0, 30, 8, 12, 12, 2, 11, 3, 9, 25, 61, 0)
s = 122: (0, 33, 7, 10, 12, 4, 9, 3, 7, 15, 42, 0)
s = 123: (0, 45, 5, 5, 6, 2, 9, 2, 6, 14, 21, 0)
s = 124: (0, 19, 7, 7, 15, 2, 11, 4, 8, 27, 50, 0)
s = 125: (0, 17, 6, 10, 12, 2, 11, 4, 8, 18, 26, 0)
s = 126: (0, 23, 9, 10, 10, 3, 10, 5, 6, 24, 26, 0)
s = 127: (0, 26, 10, 5, 10, 3, 7, 6, 11, 14, 39, 0)
s = 128: (0, 30, 6, 8, 16, 3, 11, 4, 7, 19, 44, 0)
s = 129: (0, 21, 11, 7, 10, 2, 6, 2, 8, 17, 56, 0)
s = 130: (0, 24, 10, 7, 14, 3, 9, 5, 12, 20, 41, 0)
s = 131: (0, 21, 6, 7, 12, 2, 8, 4, 11, 19, 26, 0)
s = 132: (0, 37, 7, 11, 6, 3, 10, 3, 8, 20, 37, 0)
s = 133: (0, 20, 8, 8, 11, 3, 10, 3, 10, 15, 39, 0)
s = 134: (0, 34, 6, 7, 9, 3, 8, 2, 13, 22, 28, 0)
s = 135: (0, 29, 12, 9, 8, 3, 9, 4, 10, 18, 26, 0)
s = 136: (0, 19, 8, 9, 6, 4, 10, 2, 6, 17, 38, 0)
s = 137: (0, 18, 6, 6, 8, 3, 11, 3, 7, 23, 38, 0)
s = 138: (0, 43, 6, 6, 6, 2, 7, 3, 8, 13, 46, 0)
s = 139: (0, 26, 9, 9, 10, 2, 10, 3, 13, 12, 42, 0)
s = 140: (0, 25, 8, 6, 11, 2, 8, 2, 6, 18, 47, 0)
s = 141: (0, 24, 6, 6, 7, 2, 12, 2, 12, 24, 52, 0)
s = 142: (0, 37, 11, 6, 10, 3, 14, 3, 9, 10, 38, 0)
s = 143: (0, 20, 5, 8, 7, 3, 12, 4, 6, 25, 28, 0)
s = 144: (0, 31, 8, 6, 10, 2, 18, 2, 8, 24, 38, 0)
s = 145: (0, 18, 8, 9, 12, 2, 7, 2, 13, 26, 59, 0)
s = 146: (0, 25, 10, 7, 10, 2, 8, 3, 8, 27, 62, 0)
s = 147: (0, 28, 7, 8, 8, 2, 10, 3, 10, 23, 57, 0)
s = 148: (0, 23, 7, 8, 13, 2, 11, 4, 7, 11, 39, 0)
s = 149: (0, 21, 7, 11, 6, 2, 9, 3, 6, 11, 27, 0)
s = 150: (0, 28, 5, 6, 8, 2, 9, 3, 13, 20, 48, 0)
s = 151: (0, 36, 8, 9, 8, 3, 9, 2, 9, 21, 32, 0)
s = 152: (0, 23, 7, 7, 6, 2, 7, 3, 7, 17, 30, 0)
s = 153: (0, 25, 5, 6, 8, 4, 10, 4, 7, 13, 58, 0)
s = 154: (0, 35, 9, 8, 9, 4, 6, 3, 6, 13, 36, 0)
s = 155: (0, 29, 5, 6, 6, 3, 11, 2, 13, 17, 56, 0)
s = 156: (0, 17, 9, 7, 9, 2, 11, 4, 10, 24, 38, 0)
s = 157: (0, 21, 7, 9, 11, 2, 8, 3, 13, 18, 22, 0)
s = 158: (0, 40, 5, 8, 7, 2, 7, 4, 13, 13, 51, 0)
s = 159: (0, 29, 10, 8, 6, 2, 12, 3, 8, 22, 21, 0)
s = 160: (0, 24, 9, 5, 13, 2, 7, 2, 7, 20, 22, 0)
s = 161: (0, 28, 8, 13, 11, 2, 17, 3, 13, 26, 34, 0)
s = 162: (0, 34, 7, 7, 8, 2, 15, 4, 8, 22, 42, 0)
s = 163: (0, 34, 6, 15, 10, 2, 7, 3, 8, 17, 58, 0)
s = 164: (0, 23, 8, 12, 11, 2, 10, 3, 10, 16, 55, 0)
s = 165: (0, 24, 10, 6, 7, 3, 7, 3, 6, 17, 42, 0)
s = 166: (0, 23, 8, 7, 14, 3, 8, 4, 12, 11, 25, 0)
s = 167: (0, 19, 7, 11, 11, 2, 10, 3, 7, 14, 36, 0)
s = 168: (0, 16, 5, 7, 9, 2, 8, 4, 9, 16, 24, 0)
s = 169: (0, 27, 4, 5, 7, 2, 7, 3, 9, 15, 49, 0)
s = 170: (0, 23, 12, 8, 11, 3, 11, 3, 13, 22, 33, 0)
s = 171: (0, 40, 6, 15, 15, 2, 6, 3, 13, 12, 37, 0)
s = 172: (0, 19, 11, 11, 9, 3, 7, 4, 10, 14, 26, 0)
s = 173: (0, 26, 7, 12, 15, 3, 7, 3, 11, 13, 23, 0)
s = 174: (0, 18, 9, 9, 8, 3, 7, 3, 10, 20, 38, 0)
s = 175: (0, 18, 6, 8, 6, 3, 7, 2, 7, 19, 30, 0)
s = 176: (0, 36, 6, 12, 6, 2, 9, 4, 11, 22, 44, 0)
s = 177: (0, 22, 9, 13, 16, 3, 8, 3, 13, 19, 25, 0)
s = 178: (0, 32, 6, 8, 6, 2, 12, 3, 5, 14, 41, 0)
s = 179: (0, 32, 7, 11, 15, 2, 6, 5, 8, 26, 41, 0)
s = 180: (0, 15, 5, 8, 7, 3, 10, 4, 10, 11, 41, 0)
s = 181: (0, 29, 10, 12, 13, 3, 9, 4, 7, 13, 22, 0)
s = 182: (0, 25, 7, 10, 7, 3, 12, 3, 10, 17, 42, 0)
s = 183: (0, 35, 9, 7, 10, 3, 8, 4, 7, 20, 44, 0)
s = 184: (0, 32, 5, 10, 11, 3, 12, 4, 8, 18, 39, 0)
s = 185: (0, 18, 9, 8, 5, 2, 13, 3, 8, 14, 66, 0)
s = 186: (0, 30, 5, 8, 11, 3, 6, 4, 8, 19, 40, 0)
s = 187: (0, 19, 9, 8, 10, 3, 10, 4, 9, 18, 24, 0)
s = 188: (0, 41, 5, 7, 7, 4, 7, 3, 12, 21, 33, 0)
s = 189: (0, 20, 12, 7, 10, 3, 8, 4, 9, 17, 37, 0)
s = 190: (0, 24, 8, 7, 11, 3, 8, 3, 14, 23, 19, 0)
s = 191: (0, 26, 7, 5, 9, 2, 5, 3, 8, 19, 32, 0)
s = 192: (0, 21, 8, 8, 9, 2, 11, 3, 9, 22, 33, 0)
s = 193: (0, 37, 6, 11, 10, 3, 10, 5, 11, 17, 32, 0)
s = 194: (0, 25, 8, 8, 9, 4, 10, 3, 10, 14, 32, 0)
s = 195: (0, 37, 11, 9, 9, 4, 9, 3, 9, 12, 22, 0)
s = 196: (0, 20, 4, 5, 11, 3, 10, 5, 10, 20, 22, 0)
s = 197: (0, 30, 9, 6, 8, 2, 7, 5, 10, 21, 55, 0)
s = 198: (0, 31, 9, 6, 5, 2, 9, 4, 15, 12, 54, 0)
s = 199: (0, 31, 9, 11, 16, 2, 9, 4, 7, 18, 25, 0)
s = 200: (0, 24, 11, 7, 11, 2, 8, 3, 8, 23, 50, 0)
------------------------------------------------------------------------
RESOURCE k = 2
s = 1: (0, 32, 5, 11, 9, 4, 10, 6, 10, 5, 19, 0)
s = 2: (0, 22, 9, 8, 9, 4, 5, 6, 8, 9, 40, 0)
s = 3: (0, 21, 7, 13, 12, 5, 9, 5, 8, 7, 28, 0)
s = 4: (0, 26, 10, 23, 6, 5, 9, 5, 14, 4, 26, 0)
s = 5: (0, 40, 12, 29, 10, 3, 6, 5, 11, 8, 57, 0)
s = 6: (0, 25, 14, 9, 9, 7, 13, 5, 11, 7, 43, 0)
s = 7: (0, 23, 9, 16, 8, 4, 11, 5, 12, 8, 33, 0)
s = 8: (0, 22, 14, 13, 11, 3, 8, 5, 13, 8, 39, 0)
s = 9: (0, 34, 7, 21, 16, 5, 7, 5, 14, 5, 27, 0)
s = 10: (0, 34, 8, 15, 7, 4, 6, 7, 13, 4, 28, 0)
s = 11: (0, 36, 8, 18, 9, 7, 6, 8, 7, 8, 27, 0)
s = 12: (0, 32, 11, 22, 10, 5, 11, 6, 7, 6, 40, 0)
s = 13: (0, 24, 11, 12, 10, 5, 9, 5, 13, 5, 37, 0)
s = 14: (0, 33, 7, 14, 8, 5, 7, 5, 7, 9, 19, 0)
s = 15: (0, 39, 10, 10, 9, 5, 9, 7, 8, 5, 41, 0)
s = 16: (0, 24, 6, 23, 6, 5, 8, 7, 15, 5, 41, 0)
s = 17: (0, 30, 8, 19, 6, 6, 9, 7, 12, 4, 24, 0)
s = 18: (0, 35, 8, 10, 9, 5, 5, 9, 10, 7, 36, 0)
s = 19: (0, 28, 10, 15, 10, 4, 9, 5, 8, 7, 28, 0)
s = 20: (0, 40, 7, 9, 11, 5, 6, 9, 10, 4, 26, 0)
s = 21: (0, 15, 10, 14, 11, 4, 7, 4, 9, 6, 36, 0)
s = 22: (0, 20, 14, 13, 8, 6, 12, 7, 11, 6, 38, 0)
s = 23: (0, 38, 10, 15, 6, 5, 6, 8, 9, 8, 22, 0)
s = 24: (0, 36, 11, 11, 10, 3, 9, 7, 15, 7, 39, 0)
s = 25: (0, 21, 12, 11, 16, 5, 10, 6, 12, 8, 40, 0)
s = 26: (0, 27, 8, 12, 8, 4, 12, 8, 8, 7, 42, 0)
s = 27: (0, 34, 7, 8, 9, 3, 5, 5, 15, 7, 30, 0)
s = 28: (0, 26, 6, 10, 7, 5, 10, 5, 8, 9, 22, 0)
s = 29: (0, 38, 11, 12, 13, 5, 7, 6, 8, 6, 43, 0)
s = 30: (0, 31, 9, 13, 11, 5, 14, 5, 8, 5, 29, 0)
s = 31: (0, 16, 7, 15, 8, 6, 5, 4, 12, 6, 19, 0)
s = 32: (0, 17, 7, 20, 9, 5, 9, 4, 9, 5, 24, 0)
s = 33: (0, 24, 6, 17, 7, 3, 6, 5, 17, 8, 37, 0)
s = 34: (0, 26, 17, 12, 12, 3, 10, 5, 17, 7, 36, 0)
s = 35: (0, 28, 13, 8, 9, 4, 6, 6, 7, 7, 30, 0)
s = 36: (0, 28, 9, 12, 7, 6, 10, 5, 9, 9, 38, 0)
s = 37: (0, 31, 11, 20, 14, 3, 8, 7, 8, 4, 23, 0)
s = 38: (0, 19, 7, 25, 6, 4, 8, 5, 18, 6, 26, 0)
s = 39: (0, 42, 13, 11, 11, 5, 11, 6, 8, 6, 22, 0)
s = 40: (0, 43, 9, 13, 10, 4, 8, 6, 13, 9, 29, 0)
s = 41: (0, 45, 15, 10, 9, 3, 7, 5, 15, 5, 30, 0)
s = 42: (0, 31, 10, 16, 8, 5, 5, 8, 16, 5, 23, 0)
s = 43: (0, 30, 10, 11, 11, 5, 10, 7, 12, 5, 21, 0)
s = 44: (0, 16, 10, 23, 9, 3, 9, 7, 11, 9, 20, 0)
s = 45: (0, 26, 5, 12, 6, 4, 9, 8, 7, 10, 20, 0)
s = 46: (0, 23, 13, 18, 8, 3, 9, 5, 11, 6, 26, 0)
s = 47: (0, 41, 13, 11, 10, 6, 10, 6, 9, 8, 36, 0)
s = 48: (0, 39, 13, 17, 6, 6, 9, 6, 8, 7, 23, 0)
s = 49: (0, 25, 10, 18, 9, 3, 10, 4, 10, 6, 26, 0)
s = 50: (0, 17, 11, 13, 15, 7, 7, 5, 7, 7, 16, 0)
s = 51: (0, 21, 15, 9, 14, 6, 7, 5, 9, 7, 35, 0)
s = 52: (0, 35, 14, 18, 10, 4, 9, 6, 8, 5, 21, 0)
s = 53: (0, 20, 11, 15, 8, 4, 7, 8, 16, 9, 34, 0)
s = 54: (0, 22, 10, 22, 10, 8, 11, 6, 10, 8, 26, 0)
s = 55: (0, 29, 11, 19, 9, 3, 7, 8, 7, 6, 39, 0)
s = 56: (0, 26, 9, 22, 8, 4, 9, 9, 14, 6, 29, 0)
s = 57: (0, 30, 8, 10, 10, 5, 6, 10, 10, 5, 39, 0)
s = 58: (0, 32, 7, 15, 6, 5, 14, 10, 8, 5, 18, 0)
s = 59: (0, 44, 12, 19, 13, 4, 8, 8, 7, 4, 35, 0)
s = 60: (0, 20, 8, 15, 12, 5, 8, 8, 9, 8, 22, 0)
s = 61: (0, 22, 11, 21, 8, 4, 6, 5, 11, 5, 41, 0)
s = 62: (0, 30, 8, 8, 6, 3, 8, 8, 12, 10, 27, 0)
s = 63: (0, 19, 11, 13, 7, 5, 10, 7, 8, 7, 21, 0)
s = 64: (0, 18, 8, 11, 13, 5, 10, 4, 10, 5, 16, 0)
s = 65: (0, 38, 11, 9, 10, 5, 12, 10, 8, 6, 21, 0)
s = 66: (0, 37, 6, 20, 9, 6, 7, 6, 8, 8, 23, 0)
s = 67: (0, 18, 9, 18, 7, 4, 6, 7, 16, 4, 31, 0)
s = 68: (0, 30, 9, 12, 9, 3, 6, 7, 16, 8, 28, 0)
s = 69: (0, 22, 10, 13, 9, 4, 5, 7, 7, 9, 35, 0)
s = 70: (0, 30, 15, 9, 10, 4, 11, 7, 8, 7, 24, 0)
s = 71: (0, 25, 9, 14, 10, 4, 10, 6, 8, 8, 30, 0)
s = 72: (0, 35, 7, 9, 14, 5, 10, 6, 10, 7, 22, 0)
s = 73: (0, 22, 13, 11, 7, 5, 13, 10, 10, 7, 20, 0)
s = 74: (0, 37, 6, 10, 11, 4, 13, 8, 11, 6, 44, 0)
s = 75: (0, 29, 10, 10, 13, 3, 8, 7, 7, 6, 25, 0)
s = 76: (0, 25, 12, 16, 8, 5, 7, 5, 8, 5, 34, 0)
s = 77: (0, 32, 9, 15, 7, 5, 8, 5, 10, 5, 19, 0)
s = 78: (0, 18, 9, 13, 13, 4, 5, 6, 11, 7, 27, 0)
s = 79: (0, 20, 11, 11, 12, 5, 7, 6, 13, 5, 28, 0)
s = 80: (0, 20, 7, 19, 12, 5, 8, 8, 9, 7, 24, 0)
s = 81: (0, 18, 12, 22, 7, 6, 8, 6, 8, 6, 38, 0)
s = 82: (0, 41, 8, 11, 11, 5, 8, 5, 6, 10, 34, 0)
s = 83: (0, 29, 7, 10, 12, 4, 7, 4, 8, 4, 36, 0)
s = 84: (0, 33, 7, 16, 8, 3, 6, 5, 11, 6, 26, 0)
s = 85: (0, 32, 9, 19, 7, 5, 7, 5, 7, 9, 41, 0)
s = 86: (0, 47, 7, 13, 12, 6, 7, 8, 15, 6, 21, 0)
s = 87: (0, 31, 8, 8, 7, 3, 7, 5, 11, 5, 29, 0)
s = 88: (0, 28, 11, 14, 11, 6, 6, 7, 12, 6, 17, 0)
s = 89: (0, 22, 11, 10, 10, 4, 9, 6, 12, 7, 28, 0)
s = 90: (0, 22, 6, 20, 9, 4, 10, 5, 7, 5, 41, 0)
s = 91: (0, 20, 10, 16, 12, 4, 12, 6, 11, 4, 35, 0)
s = 92: (0, 20, 8, 20, 8, 6, 6, 4, 17, 9, 45, 0)
s = 93: (0, 21, 5, 20, 8, 4, 11, 6, 7, 7, 34, 0)
s = 94: (0, 21, 9, 19, 12, 4, 9, 6, 17, 6, 32, 0)
s = 95: (0, 22, 9, 13, 7, 4, 5, 8, 7, 9, 15, 0)
s = 96: (0, 31, 6, 17, 6, 6, 5, 4, 8, 7, 35, 0)
s = 97: (0, 18, 9, 14, 9, 4, 8, 8, 8, 5, 37, 0)
s = 98: (0, 16, 11, 16, 6, 5, 7, 9, 8, 9, 24, 0)
s = 99: (0, 26, 10, 20, 14, 3, 8, 8, 8, 8, 19, 0)
s = 100: (0, 25, 11, 9, 10, 4, 7, 5, 15, 8, 46, 0)
s = 101: (0, 36, 8, 14, 12, 4, 9, 9, 16, 5, 19, 0)
s = 102: (0, 30, 13, 9, 9, 4, 7, 5, 9, 7, 20, 0)
s = 103: (0, 28, 8, 16, 7, 6, 11, 6, 9, 9, 32, 0)
s = 104: (0, 16, 7, 17, 10, 5, 6, 5, 6, 5, 40, 0)
s = 105: (0, 19, 7, 14, 10, 4, 7, 7, 6, 9, 24, 0)
s = 106: (0, 27, 10, 13, 8, 6, 6, 9, 8, 8, 22, 0)
s = 107: (0, 21, 8, 19, 12, 4, 10, 5, 11, 6, 22, 0)
s = 108: (0, 48, 9, 21, 14, 3, 12, 7, 10, 6, 34, 0)
s = 109: (0, 29, 7, 16, 11, 3, 10, 5, 9, 5, 34, 0)
s = 110: (0, 18, 6, 11, 7, 5, 10, 7, 11, 10, 16, 0)
s = 111: (0, 31, 7, 14, 6, 4, 5, 4, 8, 8, 20, 0)
s = 112: (0, 16, 7, 21, 11, 5, 11, 8, 7, 6, 32, 0)
s = 113: (0, 37, 15, 20, 8, 5, 6, 8, 11, 5, 39, 0)
s = 114: (0, 20, 13, 13, 11, 6, 6, 8, 7, 11, 21, 0)
s = 115: (0, 23, 8, 16, 12, 3, 9, 10, 8, 6, 16, 0)
s = 116: (0, 45, 10, 13, 8, 3, 10, 7, 11, 8, 29, 0)
s = 117: (0, 32, 8, 18, 9, 4, 12, 6, 9, 11, 23, 0)
s = 118: (0, 31, 6, 14, 16, 3, 8, 7, 8, 11, 28, 0)
s = 119: (0, 37, 10, 12, 6, 5, 8, 7, 8, 5, 27, 0)
s = 120: (0, 30, 11, 12, 11, 5, 9, 7, 15, 6, 42, 0)
s = 121: (0, 30, 10, 20, 12, 3, 10, 6, 10, 9, 47, 0)
s = 122: (0, 33, 9, 17, 12, 7, 8, 5, 8, 5, 33, 0)
s = 123: (0, 45, 7, 8, 6, 4, 8, 4, 7, 5, 16, 0)
s = 124: (0, 19, 9, 11, 15, 4, 10, 8, 9, 9, 39, 0)
s = 125: (0, 17, 7, 16, 12, 4, 10, 7, 9, 6, 21, 0)
s = 126: (0, 23, 12, 17, 10, 5, 9, 9, 7, 8, 20, 0)
s = 127: (0, 26, 13, 9, 10, 6, 7, 11, 12, 5, 30, 0)
s = 128: (0, 30, 7, 13, 16, 5, 10, 8, 7, 7, 34, 0)
s = 129: (0, 21, 14, 12, 10, 4, 6, 4, 9, 6, 44, 0)
s = 130: (0, 24, 13, 11, 14, 5, 8, 9, 13, 7, 32, 0)
s = 131: (0, 21, 8, 12, 12, 4, 7, 8, 12, 7, 21, 0)
s = 132: (0, 37, 8, 18, 6, 6, 9, 5, 8, 7, 29, 0)
s = 133: (0, 20, 11, 14, 11, 5, 9, 5, 11, 5, 31, 0)
s = 134: (0, 34, 8, 12, 9, 5, 7, 4, 14, 8, 22, 0)
s = 135: (0, 29, 15, 16, 8, 5, 8, 7, 11, 6, 20, 0)
s = 136: (0, 19, 10, 15, 6, 7, 9, 4, 7, 6, 30, 0)
s = 137: (0, 18, 8, 9, 8, 5, 10, 5, 7, 8, 30, 0)
s = 138: (0, 43, 8, 10, 6, 3, 6, 5, 8, 5, 36, 0)
s = 139: (0, 26, 11, 16, 10, 4, 9, 5, 14, 4, 33, 0)
s = 140: (0, 25, 11, 10, 11, 4, 7, 4, 6, 6, 37, 0)
s = 141: (0, 24, 7, 9, 7, 3, 10, 4, 14, 8, 41, 0)
s = 142: (0, 37, 13, 10, 10, 5, 13, 5, 9, 4, 29, 0)
s = 143: (0, 20, 6, 14, 7, 5, 11, 7, 7, 9, 22, 0)
s = 144: (0, 31, 10, 10, 10, 4, 16, 4, 9, 8, 29, 0)
s = 145: (0, 18, 10, 16, 12, 4, 6, 4, 14, 9, 46, 0)
s = 146: (0, 25, 12, 11, 10, 4, 7, 6, 8, 9, 48, 0)
s = 147: (0, 28, 9, 13, 8, 3, 9, 5, 11, 8, 44, 0)
s = 148: (0, 23, 9, 14, 13, 4, 10, 7, 8, 4, 30, 0)
s = 149: (0, 21, 9, 19, 6, 3, 8, 5, 7, 4, 21, 0)
s = 150: (0, 28, 6, 10, 8, 3, 8, 5, 14, 7, 37, 0)
s = 151: (0, 36, 11, 16, 8, 5, 8, 4, 10, 7, 25, 0)
s = 152: (0, 23, 8, 12, 6, 4, 6, 5, 8, 6, 23, 0)
s = 153: (0, 25, 7, 10, 8, 7, 9, 7, 8, 5, 45, 0)
s = 154: (0, 35, 11, 13, 9, 7, 6, 5, 6, 5, 28, 0)
s = 155: (0, 29, 6, 10, 6, 5, 10, 4, 14, 6, 43, 0)
s = 156: (0, 17, 12, 12, 9, 4, 10, 7, 11, 8, 30, 0)
s = 157: (0, 21, 8, 15, 11, 3, 7, 5, 15, 6, 17, 0)
s = 158: (0, 40, 6, 13, 7, 3, 6, 7, 14, 5, 40, 0)
s = 159: (0, 29, 12, 14, 6, 4, 10, 6, 9, 8, 17, 0)
s = 160: (0, 24, 11, 8, 13, 3, 6, 4, 8, 7, 17, 0)
s = 161: (0, 28, 10, 23, 11, 3, 15, 5, 15, 9, 27, 0)
s = 162: (0, 34, 9, 11, 8, 3, 13, 8, 9, 8, 33, 0)
s = 163: (0, 34, 8, 26, 10, 4, 7, 6, 9, 6, 45, 0)
s = 164: (0, 23, 11, 20, 11, 4, 9, 6, 11, 6, 43, 0)
s = 165: (0, 24, 13, 10, 7, 5, 7, 6, 7, 6, 32, 0)
s = 166: (0, 23, 10, 11, 14, 5, 7, 7, 13, 4, 20, 0)
s = 167: (0, 19, 9, 19, 11, 4, 9, 6, 7, 5, 28, 0)
s = 168: (0, 16, 7, 12, 9, 4, 7, 7, 10, 6, 19, 0)
s = 169: (0, 27, 6, 9, 7, 4, 7, 6, 10, 5, 38, 0)
s = 170: (0, 23, 15, 14, 11, 6, 10, 5, 14, 8, 26, 0)
s = 171: (0, 40, 7, 25, 15, 4, 5, 6, 15, 4, 29, 0)
s = 172: (0, 19, 14, 18, 9, 5, 6, 7, 11, 5, 21, 0)
s = 173: (0, 26, 9, 20, 15, 5, 6, 6, 12, 5, 18, 0)
s = 174: (0, 18, 11, 16, 8, 5, 6, 6, 11, 7, 30, 0)
s = 175: (0, 18, 8, 13, 6, 6, 7, 4, 8, 7, 24, 0)
s = 176: (0, 36, 8, 20, 6, 4, 8, 7, 12, 8, 34, 0)
s = 177: (0, 22, 11, 22, 16, 6, 7, 6, 14, 7, 19, 0)
s = 178: (0, 32, 8, 13, 6, 4, 10, 5, 6, 5, 32, 0)
s = 179: (0, 32, 9, 18, 15, 4, 6, 9, 9, 9, 32, 0)
s = 180: (0, 15, 6, 13, 7, 5, 9, 7, 11, 4, 32, 0)
s = 181: (0, 29, 13, 21, 13, 6, 8, 7, 7, 5, 17, 0)
s = 182: (0, 25, 8, 17, 7, 6, 11, 6, 11, 6, 33, 0)
s = 183: (0, 35, 12, 12, 10, 5, 7, 8, 8, 7, 35, 0)
s = 184: (0, 32, 7, 17, 11, 5, 10, 8, 9, 6, 30, 0)
s = 185: (0, 18, 11, 13, 5, 4, 11, 5, 8, 5, 51, 0)
s = 186: (0, 30, 6, 14, 11, 5, 6, 7, 8, 7, 31, 0)
s = 187: (0, 19, 12, 14, 10, 6, 9, 8, 10, 6, 18, 0)
s = 188: (0, 41, 6, 11, 7, 7, 6, 5, 13, 7, 26, 0)
s = 189: (0, 20, 16, 11, 10, 5, 7, 8, 10, 6, 29, 0)
s = 190: (0, 24, 10, 12, 11, 5, 7, 6, 15, 8, 15, 0)
s = 191: (0, 26, 8, 8, 9, 3, 5, 5, 9, 7, 25, 0)
s = 192: (0, 21, 10, 14, 9, 3, 10, 5, 10, 8, 25, 0)
s = 193: (0, 37, 7, 19, 10, 5, 9, 10, 12, 6, 25, 0)
s = 194: (0, 25, 10, 13, 9, 7, 9, 5, 11, 5, 25, 0)
s = 195: (0, 37, 14, 15, 9, 7, 8, 5, 10, 4, 17, 0)
s = 196: (0, 20, 5, 9, 11, 5, 9, 9, 11, 7, 17, 0)
s = 197: (0, 30, 11, 11, 8, 3, 6, 9, 11, 7, 43, 0)
s = 198: (0, 31, 12, 10, 5, 4, 8, 8, 16, 4, 42, 0)
s = 199: (0, 31, 11, 18, 16, 4, 8, 7, 8, 6, 19, 0)
s = 200: (0, 24, 14, 12, 11, 3, 7, 6, 8, 8, 39, 0)
************************************************************************
ES/LS-VALUES:
jobnr.   ES(i)    LS(i)
------------------------------------------------------------------------
  0        0        0
  1        0       59
  2        0       74
  3        0       62
  4        5       67
  5        5       65
  6        5       65
  7        7       67
  8        7       76
  9        7       72
 10        9       69
 11       17       78
************************************************************************
BIG-M-VALUES:
M1 = 30, M2 = 131
************************************************************************
